c pcminimize - minimizing a CNF with respect to propagation completeness by iterative removing of absorbed clauses.
c Petr Kucera, 2016-2021
c Version 2.7, revision 59, git hash 4910a71, date 2024-07-16 20:17:42 +0200
p cnf 713 1566
251 -252 0
119 -252 0
144 -253 0
-119 -253 0
252 253 -254 0
161 -255 0
59 -255 0
256 -257 0
-59 -257 0
255 257 -258 0
254 -259 0
258 -259 0
259 -261 0
260 -261 0
261 -262 0
96 -262 0
-59 -263 0
73 -263 0
-119 -263 0
144 -263 0
263 -264 0
256 -264 0
264 -265 0
-96 -265 0
262 265 -266 0
107 -267 0
180 -267 0
268 -269 0
-180 -269 0
267 269 -270 0
8 -271 0
29 -271 0
114 -271 0
270 -272 0
271 -272 0
272 -273 0
133 -273 0
29 -274 0
8 -274 0
275 -276 0
-8 -276 0
274 276 -277 0
277 -278 0
114 -278 0
-8 -279 0
275 -279 0
279 -280 0
-114 -280 0
278 280 -281 0
281 -282 0
-180 -282 0
268 -282 0
282 -283 0
-133 -283 0
273 283 -284 0
266 -285 0
284 -285 0
-132 -285 0
285 -286 0
246 -286 0
107 -287 0
133 -287 0
287 -288 0
180 -288 0
268 -290 0
289 -290 0
290 -291 0
-180 -291 0
288 291 -292 0
29 -293 0
114 -293 0
-132 -293 0
292 -294 0
293 -294 0
294 -295 0
8 -295 0
-133 -296 0
-180 -296 0
296 -297 0
268 -297 0
297 -300 0
275 -300 0
298 -300 0
299 -300 0
300 -301 0
-8 -301 0
295 301 -302 0
-59 -303 0
73 -303 0
-96 -303 0
-119 -303 0
144 -303 0
302 -304 0
303 -304 0
256 -304 0
304 -305 0
-246 -305 0
286 305 -306 0
307 -309 0
308 -309 0
309 -310 0
97 -310 0
-191 -311 0
-239 -311 0
311 -312 0
-97 -312 0
310 312 -313 0
313 -314 0
89 -314 0
-97 -315 0
-191 -315 0
-239 -315 0
315 -316 0
-89 -316 0
314 316 -317 0
-142 -318 0
-244 -318 0
318 -320 0
319 -320 0
320 -321 0
241 -321 0
322 -323 0
142 -323 0
-244 -324 0
-142 -324 0
323 324 -325 0
325 -326 0
207 -326 0
-244 -328 0
327 -328 0
328 -329 0
-207 -329 0
326 329 -330 0
330 -331 0
-241 -331 0
321 331 -332 0
52 -333 0
334 -335 0
-52 -335 0
333 335 -336 0
336 -337 0
228 -337 0
338 -339 0
339 -340 0
-228 -340 0
337 340 -341 0
342 -344 0
343 -344 0
344 -345 0
74 -345 0
342 -346 0
201 -346 0
-5 -347 0
-201 -347 0
346 347 -348 0
348 -349 0
-74 -349 0
345 349 -350 0
-25 -351 0
42 -351 0
48 -351 0
81 -351 0
-99 -351 0
106 -351 0
163 -351 0
-190 -351 0
210 -351 0
-233 -351 0
352 -359 0
353 -359 0
354 -359 0
355 -359 0
356 -359 0
357 -359 0
358 -359 0
306 -360 0
317 -360 0
332 -360 0
341 -360 0
350 -360 0
359 -360 0
-104 -364 0
189 -367 0
213 -367 0
82 -376 0
-141 -376 0
72 -382 0
142 -383 0
207 -383 0
-241 -383 0
254 -384 0
383 -384 0
384 -385 0
244 -385 0
207 -386 0
251 -386 0
386 -387 0
119 -387 0
144 -388 0
319 -388 0
388 -389 0
-119 -389 0
387 389 -390 0
-142 -391 0
241 -391 0
327 -392 0
-241 -392 0
391 392 -393 0
390 -394 0
393 -394 0
394 -395 0
-244 -395 0
385 395 -396 0
397 -398 0
354 -398 0
398 -399 0
213 -399 0
-48 -400 0
248 -400 0
400 -401 0
-213 -401 0
399 401 -402 0
402 -403 0
350 -403 0
403 -405 0
404 -405 0
405 -406 0
106 -406 0
354 -407 0
213 -407 0
248 -408 0
-213 -408 0
407 408 -409 0
-48 -410 0
74 -410 0
-82 -410 0
342 -411 0
343 -411 0
409 -412 0
410 -412 0
411 -412 0
412 -413 0
-106 -413 0
406 413 -414 0
289 -415 0
8 -415 0
-133 -416 0
-8 -416 0
415 416 -417 0
52 -418 0
417 -420 0
418 -420 0
419 -420 0
420 -421 0
114 -421 0
-8 -422 0
-133 -422 0
341 -423 0
422 -423 0
423 -424 0
-114 -424 0
421 424 -425 0
414 -426 0
425 -426 0
-132 -426 0
426 -427 0
246 -427 0
422 -428 0
132 -428 0
417 -429 0
-132 -429 0
428 429 -430 0
430 -431 0
418 -431 0
419 -431 0
431 -432 0
114 -432 0
341 -433 0
422 -433 0
299 -433 0
433 -434 0
-114 -434 0
432 434 -435 0
-48 -436 0
74 -436 0
-82 -436 0
-106 -436 0
342 -437 0
343 -437 0
435 -438 0
409 -438 0
436 -438 0
437 -438 0
438 -439 0
-246 -439 0
427 439 -440 0
42 -441 0
-73 -441 0
96 -441 0
-99 -441 0
104 -441 0
-107 -441 0
141 -441 0
-150 -441 0
-163 -441 0
-180 -441 0
-189 -441 0
190 -441 0
210 -441 0
-249 -441 0
396 -442 0
440 -442 0
317 -442 0
258 -442 0
441 -442 0
275 -442 0
442 -443 0
25 -443 0
444 -445 0
48 -445 0
141 -446 0
-48 -446 0
445 446 -447 0
447 -448 0
350 -448 0
448 -449 0
404 -449 0
449 -450 0
106 -450 0
-48 -451 0
74 -451 0
-82 -451 0
141 -451 0
342 -452 0
343 -452 0
451 -453 0
452 -453 0
453 -454 0
-106 -454 0
450 454 -455 0
292 -456 0
29 -456 0
456 -457 0
8 -457 0
296 -458 0
268 -458 0
458 -459 0
275 -459 0
459 -460 0
-8 -460 0
457 460 -461 0
455 -462 0
461 -462 0
-132 -462 0
462 -463 0
246 -463 0
8 -464 0
29 -464 0
-132 -464 0
270 -465 0
464 -465 0
465 -466 0
133 -466 0
-8 -467 0
275 -467 0
467 -468 0
132 -468 0
277 -469 0
-132 -469 0
468 469 -470 0
470 -471 0
-180 -471 0
268 -471 0
471 -472 0
-133 -472 0
466 472 -473 0
-48 -474 0
74 -474 0
-82 -474 0
-106 -474 0
141 -474 0
342 -475 0
343 -475 0
473 -476 0
474 -476 0
475 -476 0
476 -477 0
-246 -477 0
463 477 -478 0
478 -479 0
254 -479 0
258 -479 0
479 -480 0
260 -480 0
480 -481 0
96 -481 0
29 -482 0
-132 -482 0
292 -484 0
482 -484 0
483 -484 0
484 -485 0
8 -485 0
-246 -486 0
132 -486 0
483 -487 0
-132 -487 0
486 487 -488 0
488 -489 0
296 -489 0
268 -489 0
489 -490 0
275 -490 0
490 -491 0
-8 -491 0
485 491 -492 0
455 -493 0
492 -493 0
263 -493 0
256 -493 0
493 -494 0
-96 -494 0
481 494 -495 0
42 -496 0
-99 -496 0
495 -497 0
317 -497 0
496 -497 0
497 -498 0
210 -498 0
-8 -499 0
74 -499 0
-82 -499 0
-106 -499 0
-133 -499 0
-180 -499 0
-246 -499 0
275 -500 0
342 -500 0
343 -500 0
268 -500 0
499 -501 0
500 -501 0
501 -502 0
132 -502 0
350 -503 0
246 -503 0
503 -504 0
404 -504 0
504 -505 0
106 -505 0
74 -506 0
-82 -506 0
342 -507 0
343 -507 0
506 -508 0
507 -508 0
508 -509 0
483 -509 0
509 -510 0
-106 -510 0
505 510 -511 0
511 -512 0
461 -512 0
512 -513 0
-132 -513 0
502 513 -514 0
514 -515 0
254 -515 0
258 -515 0
515 -516 0
260 -516 0
516 -517 0
96 -517 0
350 -518 0
404 -518 0
518 -519 0
106 -519 0
342 -520 0
343 -520 0
506 -521 0
520 -521 0
521 -522 0
-106 -522 0
519 522 -523 0
523 -524 0
492 -524 0
263 -524 0
256 -524 0
524 -525 0
-96 -525 0
517 525 -526 0
527 -528 0
99 -528 0
42 -529 0
-99 -529 0
528 529 -530 0
89 -531 0
530 -532 0
531 -532 0
532 -533 0
307 -533 0
308 -533 0
533 -534 0
97 -534 0
527 -535 0
130 -535 0
-42 -536 0
-130 -536 0
535 536 -537 0
537 -538 0
99 -538 0
42 -539 0
539 -540 0
-99 -540 0
538 540 -541 0
541 -542 0
311 -542 0
542 -544 0
543 -544 0
544 -545 0
-97 -545 0
534 545 -546 0
-48 -547 0
141 -547 0
526 -548 0
546 -548 0
547 -548 0
548 -549 0
-210 -549 0
498 549 -550 0
550 -551 0
114 -551 0
-132 -552 0
246 -552 0
447 -553 0
350 -553 0
552 -553 0
553 -554 0
404 -554 0
554 -555 0
106 -555 0
342 -556 0
343 -556 0
488 -557 0
451 -557 0
556 -557 0
557 -558 0
-106 -558 0
555 558 -559 0
559 -560 0
254 -560 0
258 -560 0
560 -561 0
260 -561 0
561 -562 0
96 -562 0
455 -563 0
488 -563 0
263 -563 0
256 -563 0
563 -564 0
-96 -564 0
562 564 -565 0
565 -566 0
317 -566 0
496 -566 0
566 -567 0
210 -567 0
350 -568 0
552 -568 0
568 -569 0
404 -569 0
569 -570 0
106 -570 0
342 -571 0
343 -571 0
488 -572 0
506 -572 0
571 -572 0
572 -573 0
-106 -573 0
570 573 -574 0
574 -575 0
254 -575 0
258 -575 0
575 -576 0
260 -576 0
576 -577 0
96 -577 0
523 -578 0
488 -578 0
263 -578 0
256 -578 0
578 -579 0
-96 -579 0
577 579 -580 0
580 -581 0
546 -581 0
547 -581 0
581 -582 0
-210 -582 0
567 582 -583 0
-8 -584 0
-133 -584 0
-180 -584 0
275 -585 0
268 -585 0
583 -586 0
584 -586 0
585 -586 0
586 -587 0
-114 -587 0
551 587 -588 0
-104 -589 0
163 -589 0
189 -589 0
-190 -589 0
213 -589 0
353 -590 0
354 -590 0
588 -591 0
341 -591 0
332 -591 0
589 -591 0
590 -591 0
591 -592 0
358 -592 0
592 -593 0
-25 -593 0
443 593 -594 0
81 -595 0
-233 -595 0
594 -596 0
595 -596 0
596 -597 0
196 -597 0
417 -598 0
81 -598 0
8 -599 0
289 -599 0
599 -600 0
-81 -600 0
598 600 -601 0
601 -602 0
350 -602 0
402 -602 0
552 -602 0
602 -603 0
404 -603 0
603 -604 0
106 -604 0
-8 -605 0
-133 -605 0
-246 -605 0
605 -606 0
132 -606 0
417 -607 0
483 -607 0
607 -608 0
-132 -608 0
606 608 -609 0
609 -610 0
81 -610 0
8 -611 0
-132 -611 0
289 -612 0
483 -612 0
611 -613 0
612 -613 0
613 -614 0
-81 -614 0
610 614 -615 0
342 -616 0
343 -616 0
615 -617 0
409 -617 0
410 -617 0
616 -617 0
617 -618 0
-106 -618 0
604 618 -619 0
-142 -620 0
-233 -620 0
-244 -620 0
620 -621 0
241 -621 0
322 -623 0
622 -623 0
623 -624 0
142 -624 0
-233 -625 0
-244 -625 0
625 -626 0
-142 -626 0
624 626 -627 0
627 -628 0
-241 -628 0
621 628 -629 0
619 -631 0
629 -631 0
630 -631 0
631 -632 0
47 -632 0
523 -633 0
601 -633 0
-132 -633 0
633 -634 0
246 -634 0
430 -635 0
81 -635 0
611 -636 0
289 -636 0
636 -637 0
-81 -637 0
635 637 -638 0
74 -639 0
-82 -639 0
-106 -639 0
342 -640 0
343 -640 0
638 -641 0
639 -641 0
640 -641 0
641 -642 0
-246 -642 0
634 642 -643 0
95 -644 0
142 -644 0
187 -644 0
233 -644 0
-241 -644 0
643 -645 0
402 -645 0
644 -645 0
322 -645 0
645 -646 0
-47 -646 0
632 646 -647 0
647 -648 0
418 -648 0
419 -648 0
648 -649 0
114 -649 0
402 -650 0
350 -650 0
552 -650 0
650 -651 0
404 -651 0
651 -652 0
106 -652 0
342 -653 0
343 -653 0
409 -654 0
488 -654 0
410 -654 0
653 -654 0
654 -655 0
-106 -655 0
652 655 -656 0
-8 -657 0
81 -657 0
-133 -657 0
656 -658 0
341 -658 0
629 -658 0
657 -658 0
658 -659 0
-114 -659 0
649 659 -660 0
25 -661 0
42 -661 0
-73 -661 0
96 -661 0
-99 -661 0
104 -661 0
-107 -661 0
119 -661 0
141 -661 0
-144 -661 0
-150 -661 0
-163 -661 0
-180 -661 0
-189 -661 0
190 -661 0
207 -661 0
210 -661 0
-249 -661 0
660 -662 0
317 -662 0
258 -662 0
661 -662 0
275 -662 0
662 -663 0
-196 -663 0
664 -665 0
357 -668 0
356 -668 0
668 -669 0
355 -672 0
352 -677 0
-72 -707 0
708 -710 0
1 0
-2 0
-3 0
4 0
-6 0
-7 0
-10 0
-11 0
12 0
-13 0
-14 0
15 0
16 0
17 0
18 0
-19 0
-20 0
21 0
22 0
23 0
26 0
27 0
-28 0
-30 0
31 0
-32 0
-33 0
-34 0
-35 0
-36 0
37 0
38 0
40 0
41 0
43 0
44 0
45 0
46 0
-49 0
50 0
-51 0
53 0
54 0
-55 0
-56 0
-57 0
-58 0
-60 0
-61 0
-62 0
-63 0
64 0
65 0
-66 0
-67 0
-68 0
69 0
70 0
-71 0
-75 0
-76 0
77 0
-78 0
-79 0
-80 0
83 0
84 0
85 0
-86 0
-87 0
-88 0
90 0
91 0
-92 0
93 0
94 0
-98 0
100 0
101 0
102 0
103 0
105 0
-108 0
-109 0
110 0
-111 0
112 0
-113 0
-115 0
116 0
117 0
118 0
120 0
121 0
-122 0
123 0
-124 0
-125 0
127 0
128 0
129 0
-131 0
-134 0
-135 0
-136 0
137 0
138 0
-139 0
-140 0
143 0
-145 0
-146 0
-147 0
-148 0
149 0
-151 0
-152 0
153 0
-154 0
-155 0
156 0
-157 0
-158 0
-159 0
160 0
162 0
164 0
165 0
-166 0
-167 0
-168 0
169 0
-170 0
171 0
172 0
173 0
-174 0
175 0
-176 0
177 0
-178 0
179 0
181 0
182 0
183 0
184 0
-185 0
186 0
188 0
-192 0
-193 0
194 0
-195 0
-197 0
-198 0
-199 0
-200 0
202 0
203 0
204 0
205 0
206 0
208 0
-209 0
211 0
212 0
-214 0
215 0
-216 0
-217 0
-218 0
219 0
220 0
221 0
-222 0
-223 0
224 0
225 0
-226 0
-227 0
-229 0
-230 0
-232 0
-234 0
235 0
236 0
237 0
238 0
240 0
-242 0
243 0
-245 0
-247 0
250 0
-705 706 0
-702 703 0
-701 703 0
-700 701 0
-699 700 0
-697 698 0
-696 697 0
-694 695 0
-693 694 0
-692 694 0
-691 692 0
-690 691 0
-689 691 0
-687 688 0
-686 688 0
-683 685 0
-682 683 0
-680 681 0
-678 680 0
-675 677 0
-669 670 0
-666 669 0
-665 666 0
196 663 0
-662 663 0
-660 662 0
-657 658 0
-656 658 0
-654 655 0
-648 649 0
-647 648 0
-644 645 0
-95 644 0
-641 642 0
-640 641 0
-639 641 0
-638 641 0
-637 638 0
-635 638 0
-632 647 0
-629 631 658 0
-627 628 0
-626 627 0
-625 626 0
-623 624 0
-622 623 0
-233 622 644 0
-621 629 0
-617 618 0
-610 615 0
-608 609 0
-606 609 0
-605 606 0
-602 603 0
-601 602 633 0
-598 601 0
-597 664 0
-596 597 0
-595 596 0
-594 596 0
-671 672 0
-588 591 0
-587 588 0
-586 587 0
-584 586 0
-583 586 0
-581 582 0
-580 581 0
-578 579 0
-577 580 0
-576 577 0
-574 575 0
-573 574 0
-572 573 0
-571 572 0
-570 574 0
-569 570 0
-568 569 0
-566 567 0
-564 565 0
-562 565 0
-561 562 0
-589 591 0
-559 560 0
-590 591 0
-558 559 0
-557 558 0
-554 555 0
-670 672 0
-553 554 0
-549 550 0
-547 548 581 0
-544 545 0
-655 656 0
-543 544 0
-652 656 0
-542 544 0
-540 541 0
-539 540 0
-538 541 0
-537 538 0
-535 537 0
-533 534 0
-532 533 0
-531 532 0
-530 532 0
-529 530 0
-528 530 0
42 527 536 0
-526 548 0
-525 526 0
-524 525 0
-523 524 578 633 0
-522 523 0
-521 522 0
-520 521 0
-519 523 0
-518 519 0
-517 526 0
-516 517 0
-514 515 0
-513 514 0
-512 513 0
-510 511 0
-619 631 0
-509 510 0
-604 619 0
-508 509 0
-711 712 0
-507 508 0
-505 511 0
-712 713 0
-618 619 0
130 536 0
-504 505 0
-492 493 524 0
-373 374 0
-425 426 0
-362 363 0
-609 610 0
-664 665 0
213 401 408 0
-106 351 406 450 505 519 555 570 604 652 0
-677 678 0
-293 294 0
-575 576 0
-191 308 0
29 275 0
-435 438 0
-473 476 0
-81 351 595 598 610 635 657 0
-414 426 0
-630 631 0
-643 645 0
161 256 0
-385 396 0
-658 659 0
-579 580 0
-161 255 256 0
-415 417 0
-704 705 0
25 351 593 0
24 356 0
-329 330 0
-281 282 0
-431 432 0
-445 447 0
-9 334 0
-29 271 274 275 293 456 464 482 0
-469 470 0
-673 674 0
-89 314 531 543 0
-319 320 388 0
-405 406 0
-653 654 0
-536 537 0
74 349 0
-346 348 0
-457 461 0
-74 345 410 436 451 474 499 506 639 0
201 343 347 0
-342 344 346 411 437 452 475 500 507 520 556 571 616 640 653 0
-636 637 0
-341 360 423 433 591 658 0
-456 457 0
-465 466 0
-340 341 0
-455 462 493 563 0
228 340 419 0
-339 340 0
-631 632 0
-337 341 0
-582 583 0
231 355 0
-454 455 0
-318 320 0
-336 337 0
-453 454 0
-335 336 0
-451 453 557 0
52 335 338 0
114 280 298 424 434 587 659 0
-651 652 0
-541 542 0
-207 319 326 383 386 661 0
-470 471 0
-294 295 0
-133 273 287 289 466 0
-279 280 0
-548 549 0
-271 272 0
-424 425 0
-634 643 0
-349 350 0
241 331 383 392 628 644 0
-419 420 431 648 0
-388 389 0
-114 271 278 293 298 421 432 551 649 0
-277 278 469 0
-378 379 0
-311 312 542 0
-615 617 0
-324 325 0
-511 512 0
-706 707 0
-494 495 0
107 268 441 661 0
-301 302 0
-254 259 384 479 515 560 575 0
-649 660 0
-426 427 0
-312 313 0
-253 254 0
133 283 289 296 416 422 472 499 584 605 657 0
-180 267 288 0
-585 586 0
-269 270 0
82 404 410 436 451 474 499 506 639 0
-372 373 0
-410 412 617 654 0
-283 284 0
-358 359 592 0
-461 462 512 0
-460 461 0
-252 254 0
-275 276 279 300 442 459 467 490 500 585 662 0
-334 335 0
-490 491 0
-264 265 0
-107 267 268 287 0
-642 643 0
-344 345 0
199 367 696 0
-338 339 0
59 257 263 303 0
-534 546 0
-262 266 0
-420 421 0
-616 617 0
-132 299 428 468 486 502 606 0
-255 258 0
-314 317 0
-545 546 0
-265 266 0
-611 613 636 0
-320 321 0
-59 255 0
-260 261 480 516 561 576 0
-377 378 0
-274 277 0
-272 273 0
-375 377 0
246 305 439 477 483 486 499 605 642 0
96 265 303 494 525 564 579 0
-189 367 589 0
119 253 263 303 389 0
-483 484 487 509 607 612 0
-142 323 327 383 624 644 0
-251 252 386 0
-345 350 0
73 260 441 661 0
-317 360 442 497 566 662 0
-550 551 0
-267 270 0
-144 251 253 263 303 388 0
-368 369 0
-478 479 0
-82 376 404 0
207 319 329 0
-316 317 0
-163 351 589 0
-296 297 458 489 0
-257 258 0
30 351 665 0
-343 344 411 437 452 475 500 507 520 556 571 616 640 653 0
-679 680 0
-475 476 0
-119 252 387 661 0
-259 261 0
-5 342 0
-228 337 419 0
132 285 293 299 426 429 462 464 469 482 487 513 552 608 611 633 0
-393 394 0
-448 449 0
-73 260 263 303 0
239 307 311 315 0
8 276 279 301 416 422 460 467 491 499 584 605 657 0
-96 262 441 481 517 562 577 661 0
-672 673 0
-278 281 0
-379 380 0
-384 385 0
-674 675 0
-282 283 0
-285 286 0
-244 322 385 0
-48 351 397 445 0
-476 477 0
-327 328 392 0
-600 601 0
-246 286 427 463 483 503 552 634 0
-286 306 0
-599 600 0
-97 310 534 0
189 441 661 0
-201 343 346 0
-411 412 0
-287 288 0
-321 332 0
-450 455 0
-288 292 0
-289 290 415 599 612 636 0
-290 291 0
-291 292 0
-593 594 0
-295 302 0
-310 313 0
-297 300 0
99 351 441 496 529 540 661 0
-367 368 0
-298 300 0
-628 629 0
-399 402 0
5 342 347 0
-299 300 433 0
-685 686 0
-300 301 0
-353 359 590 0
106 413 436 454 474 499 510 522 558 573 618 639 655 0
-613 614 0
-322 323 623 645 0
-527 528 535 0
-42 351 441 496 527 529 539 661 0
-412 413 0
48 397 400 410 436 446 451 474 547 0
-258 259 442 479 515 560 575 662 0
-303 304 0
-302 304 0
-551 588 0
-304 305 0
-681 682 0
97 312 315 545 0
-190 441 661 0
-261 262 0
-546 548 581 0
-266 285 0
-376 377 0
-276 277 0
-305 306 0
-306 360 0
-333 336 0
191 308 311 315 0
-330 331 0
-695 697 0
-313 314 0
-239 307 0
-273 284 0
-555 559 0
-439 440 0
-308 309 533 0
-676 677 0
-467 468 0
-443 594 0
-309 310 0
-315 316 0
142 318 324 327 391 620 626 0
-416 417 0
180 269 282 291 296 441 471 499 584 661 0
-328 329 0
-709 710 0
89 316 543 0
-565 566 0
244 318 322 324 328 395 620 625 0
-650 651 0
-417 420 429 598 607 0
-614 615 0
-323 325 0
-325 326 0
-187 644 0
-326 330 0
-331 332 0
-624 627 0
-332 360 591 0
-668 669 0
-101 364 684 0
-552 553 568 602 650 0
-270 272 465 0
-374 375 0
-603 604 0
-506 508 521 572 0
-502 514 0
190 351 589 0
-210 351 441 498 567 661 0
-427 440 0
-126 357 0
-390 394 0
126 357 0
-380 381 0
-684 685 0
-591 592 0
-661 662 0
242 351 690 0
-351 360 0
-39 352 0
39 352 0
-249 353 0
249 353 441 661 0
-487 488 0
-248 354 400 408 0
-52 333 338 418 0
-486 488 0
248 354 0
-40 351 679 0
-347 348 0
-354 359 398 407 590 0
-458 459 0
-348 349 0
-408 409 0
-99 528 538 0
-459 460 0
-24 356 0
-592 593 0
-150 358 0
150 358 441 661 0
-268 269 282 290 297 458 471 489 500 585 0
-498 550 0
-359 360 0
-633 634 0
-361 362 0
-698 699 0
-479 480 0
-363 365 0
104 364 589 0
-400 401 0
-703 704 0
-183 364 693 0
-429 430 0
-350 360 403 448 503 518 553 568 602 650 0
-406 414 0
-364 365 0
-422 423 428 433 0
-365 366 0
-366 368 0
-256 257 264 304 493 524 563 578 0
-556 557 0
-423 424 0
-503 504 0
-434 435 0
-292 294 456 484 0
-646 647 0
-203 367 687 0
-213 367 399 407 589 0
-263 264 493 524 563 578 0
-421 425 0
-437 438 0
-369 370 0
-659 660 0
210 549 582 0
-370 372 0
-567 583 0
-462 463 0
-407 409 0
141 376 444 0
-386 387 0
-381 382 0
-387 390 0
-389 390 0
-391 393 0
-446 447 0
-620 621 0
-392 393 0
-284 285 0
-447 448 553 0
-394 395 0
-452 453 0
-395 396 0
-371 372 0
-396 442 0
-515 516 0
192 376 702 0
-397 398 0
-398 399 0
136 371 702 0
-401 402 0
-8 271 274 295 415 457 464 485 599 611 0
-402 403 602 645 650 0
-403 405 0
-404 405 449 504 518 554 569 603 651 0
-409 412 438 617 654 0
-645 646 0
-360 361 0
-413 414 0
-418 420 431 648 0
81 600 614 637 0
-428 430 0
-488 489 557 563 572 578 654 0
-430 431 635 0
-432 435 0
144 251 661 0
-433 434 0
-436 438 0
-438 439 0
-612 613 0
-441 442 0
-440 442 0
60 709 0
-500 501 0
-104 441 661 0
163 441 661 0
88 351 671 0
-442 443 0
-25 443 661 0
-563 564 0
-280 281 0
-444 445 0
-156 367 676 0
-449 450 0
47 646 0
-463 478 0
-688 689 0
-464 465 0
-307 309 533 0
-466 473 0
-468 470 0
-471 472 0
-472 473 0
-231 355 0
-474 476 0
-477 478 0
-480 481 0
-481 495 0
-241 321 391 621 0
-482 484 0
-484 485 0
-485 492 0
-667 669 0
-489 490 0
-491 492 0
-607 608 0
-493 494 0
-495 497 0
-560 561 0
-496 497 566 0
-15 351 667 0
-497 498 0
-383 384 0
-499 501 0
-710 711 0
-501 502 0
